8558
2776
8313
9272
6094
510
3145
5103
6396
4397
5327
1156
4429
9267
6066
8829
7102
9126
1122
6492
5432
1960
971
6149
9804
5065
5390
3234
3933
5649
2050
9407
5903
4111
3390
949
8911
2228
10017
9269
2400
6611
7711
1668
1568
2229
6906
7923
488
1360
8379
